
Gurobi 10.0.1 (linux64) logging started Sun Nov 26 16:26:36 2023

Set parameter LogFile to value "ArtificialInstance/ExperimentV2/S4T4K2/AdRo/gurobiDoRo79.txt"
Gurobi Optimizer version 10.0.1 build v10.0.1rc0 (linux64)

CPU model: AMD EPYC 7H12 64-Core Processor, instruction set [SSE2|AVX|AVX2]
Thread count: 128 physical cores, 128 logical processors, using up to 32 threads

Academic license 656792 - for non-commercial use only - registered to b.___@student.vu.nl
Optimize a model with 11354 rows, 10816 columns and 42003 nonzeros
Model fingerprint: 0x676b6411
Variable types: 1 continuous, 10815 integer (10815 binary)
Coefficient statistics:
  Matrix range     [1e+00, 4e+01]
  Objective range  [1e+00, 2e+01]
  Bounds range     [1e+00, 1e+00]
  RHS range        [1e+00, 1e+00]
Presolve removed 4043 rows and 3714 columns
Presolve time: 0.14s
Presolved: 7311 rows, 7102 columns, 27639 nonzeros
Variable types: 1 continuous, 7101 integer (7101 binary)

Root relaxation: objective 9.631584e+01, 3113 iterations, 0.14 seconds (0.11 work units)

    Nodes    |    Current Node    |     Objective Bounds      |     Work
 Expl Unexpl |  Obj  Depth IntInf | Incumbent    BestBd   Gap | It/Node Time

H    0     0                      96.3158404   44.85536  53.4%     -    0s
     0     0          -    0        96.31584   96.31584  0.00%     -    0s

Explored 1 nodes (4263 simplex iterations) in 0.40 seconds (0.28 work units)
Thread count was 32 (of 128 available processors)

Solution count 1: 96.3158 

Optimal solution found (tolerance 1.00e-04)
Best objective 9.631584041481e+01, best bound 9.631584041481e+01, gap 0.0000%
